<number of tasks>
50

<cycle time>
1000

<order strength>
0.195


<task times>
1 111
2 55
3 36
4 331
5 27
6 115
7 115
8 225
9 165
10 91
11 298
12 276
13 81
14 117
15 61
16 133
17 64
18 260
19 29
20 222
21 371
22 196
23 143
24 165
25 224
26 325
27 169
28 63
29 110
30 28
31 144
32 341
33 66
34 77
35 74
36 210
37 159
38 119
39 165
40 108
41 287
42 84
43 152
44 23
45 226
46 53
47 180
48 157
49 39
50 114

<precedence relations>
1,8
2,9
3,10
4,11
5,12
5,14
6,12
6,25
7,13
7,44
8,15
9,17
10,17
11,16
12,18
12,47
15,19
16,22
17,20
17,23
17,24
17,25
18,21
18,50
19,26
20,28
21,29
22,30
23,27
24,33
24,49
25,31
25,32
26,37
27,34
28,35
29,36
30,38
33,39
34,41
35,42
36,40
37,44
38,43
40,45
41,46
41,47
41,50
42,48
43,48
43,49

<end>
